single_objective/SL-DABL/OP/problems/op/OPLib-master/instances/gen1/rat575-gen1-50.oplib
NAME : rat575
COMMENT : Rattled grid (Pulleyblank)
TYPE : OP
DIMENSION : 575
COST_LIMIT : 3387
EDGE_WEIGHT_TYPE : EUC_2D
NODE_COORD_SECTION
1 6 18
2 11 0
3 24 6
4 36 13
5 41 19
6 51 5
7 64 9
8 71 15
9 86 1
10 95 1
11 104 18
12 119 14
13 120 17
14 132 8
15 148 13
16 158 20
17 163 5
18 178 11
19 185 20
20 196 19
21 207 19
22 217 9
23 229 11
24 5 32
25 12 23
26 28 27
27 31 26
28 45 34
29 55 37
30 67 23
31 75 34
32 85 35
33 99 28
34 108 21
35 113 27
36 122 40
37 131 39
38 141 40
39 151 28
40 166 27
41 177 23
42 182 22
43 191 25
44 203 32
45 211 28
46 224 24
47 1 55
48 18 42
49 26 50
50 38 49
51 42 60
52 57 42
53 69 41
54 79 55
55 85 52
56 95 48
57 102 43
58 114 42
59 121 45
60 135 55
61 146 51
62 159 47
63 161 49
64 171 48
65 181 52
66 194 52
67 208 50
68 214 52
69 223 46
70 1 71
71 14 73
72 25 61
73 35 63
74 42 65
75 54 79
76 65 69
77 73 69
78 81 70
79 98 66
80 105 60
81 115 77
82 125 65
83 135 71
84 143 77
85 151 77
86 162 65
87 175 64
88 187 74
89 197 67
90 202 68
91 215 78
92 225 62
93 8 83
94 16 89
95 20 99
96 34 85
97 47 86
98 56 86
99 67 92
100 78 84
101 84 95
102 99 93
103 101 97
104 115 92
105 127 97
106 132 87
107 149 95
108 156 100
109 164 95
110 171 81
111 189 100
112 198 89
113 208 81
114 216 92
115 229 86
116 1 100
117 12 102
118 22 113
119 37 103
120 48 104
121 56 113
122 68 119
123 72 100
124 81 110
125 98 107
126 103 103
127 112 120
128 130 120
129 136 104
130 142 120
131 157 106
132 164 112
133 174 119
134 184 101
135 198 115
136 202 115
137 212 118
138 229 101
139 6 127
140 12 140
141 22 121
142 31 132
143 41 132
144 53 124
145 62 136
146 80 126
147 84 123
148 98 126
149 108 130
150 115 134
151 128 125
152 136 133
153 145 134
154 152 131
155 167 127
156 171 135
157 184 139
158 199 124
159 202 127
160 217 128
161 225 121
162 8 148
163 16 148
164 27 149
165 37 155
166 42 150
167 54 144
168 65 145
169 75 142
170 82 144
171 91 151
172 101 143
173 115 142
174 127 157
175 139 157
176 147 159
177 155 159
178 163 142
179 177 154
180 183 149
181 199 157
182 201 145
183 218 144
184 228 158
185 3 166
186 18 178
187 29 172
188 33 171
189 43 173
190 52 168
191 68 175
192 73 164
193 82 173
194 93 165
195 101 173
196 117 172
197 124 177
198 139 175
199 145 177
200 151 177
201 166 165
202 178 169
203 181 161
204 199 166
205 208 173
206 219 172
207 223 171
208 8 190
209 15 183
210 24 194
211 34 196
212 42 185
213 51 198
214 65 199
215 72 195
216 83 191
217 96 183
218 107 195
219 117 191
220 123 194
221 132 184
222 148 188
223 158 199
224 165 184
225 174 193
226 184 186
227 190 195
228 209 194
229 219 180
230 226 192
231 1 210
232 17 207
233 22 201
234 34 213
235 44 213
236 56 202
237 62 209
238 74 213
239 89 209
240 95 212
241 108 205
242 119 218
243 124 203
244 133 208
245 141 207
246 157 211
247 167 213
248 176 210
249 182 201
250 196 218
251 205 219
252 219 218
253 228 208
254 6 222
255 11 234
256 21 222
257 38 239
258 48 227
259 50 231
260 63 232
261 73 240
262 87 234
263 96 237
264 102 228
265 118 224
266 128 229
267 137 221
268 147 227
269 151 224
270 169 233
271 177 225
272 185 220
273 193 238
274 207 229
275 214 230
276 224 234
277 6 240
278 14 257
279 23 253
280 36 247
281 49 254
282 51 242
283 64 251
284 71 258
285 81 260
286 92 242
287 102 254
288 118 253
289 123 244
290 133 241
291 148 254
292 155 240
293 161 250
294 173 257
295 181 254
296 192 256
297 205 251
298 218 254
299 229 241
300 2 277
301 15 275
302 22 267
303 32 274
304 44 269
305 57 278
306 64 261
307 71 273
308 81 278
309 96 272
310 102 272
311 115 271
312 120 280
313 135 278
314 149 261
315 158 263
316 163 270
317 175 273
318 185 265
319 200 276
320 204 273
321 215 263
322 227 265
323 4 300
324 13 293
325 22 287
326 38 297
327 41 296
328 54 286
329 68 296
330 71 281
331 86 288
332 96 285
333 101 296
334 119 292
335 122 292
336 140 293
337 147 300
338 158 290
339 163 286
340 174 294
341 187 298
342 199 290
343 203 280
344 216 281
345 226 288
346 9 310
347 17 308
348 24 308
349 31 305
350 41 305
351 52 313
352 65 315
353 72 311
354 87 313
355 93 303
356 104 307
357 112 305
358 122 307
359 135 317
360 147 313
361 157 314
362 163 306
363 177 316
364 188 306
365 195 302
366 208 301
367 215 313
368 221 308
369 1 338
370 18 331
371 27 324
372 37 338
373 46 332
374 54 327
375 62 337
376 71 328
377 81 338
378 98 325
379 108 322
380 112 327
381 124 329
382 138 338
383 145 322
384 151 337
385 162 324
386 179 320
387 182 340
388 196 335
389 209 340
390 212 324
391 229 333
392 9 352
393 17 341
394 24 344
395 37 340
396 46 357
397 57 348
398 68 351
399 77 352
400 85 349
401 96 349
402 109 358
403 112 343
404 122 345
405 131 350
406 143 357
407 151 356
408 163 354
409 176 344
410 185 340
411 199 341
412 203 343
413 213 340
414 225 357
415 7 376
416 17 371
417 22 376
418 34 362
419 41 364
420 56 374
421 62 365
422 74 362
423 82 379
424 96 379
425 106 370
426 119 370
427 127 376
428 136 372
429 143 368
430 156 375
431 168 365
432 178 370
433 189 366
434 191 368
435 204 376
436 213 369
437 229 367
438 4 396
439 17 392
440 29 394
441 39 380
442 45 391
443 56 398
444 66 390
445 75 394
446 88 400
447 96 392
448 102 393
449 119 382
450 126 393
451 135 391
452 143 397
453 156 397
454 167 396
455 171 389
456 186 387
457 193 397
458 208 399
459 212 399
460 226 385
461 9 419
462 18 409
463 25 407
464 39 407
465 41 406
466 59 414
467 61 401
468 78 406
469 89 418
470 94 418
471 108 401
472 117 404
473 128 403
474 136 412
475 147 410
476 158 404
477 167 405
478 175 419
479 189 403
480 193 419
481 202 418
482 215 407
483 224 416
484 2 421
485 11 430
486 29 421
487 33 439
488 46 432
489 54 438
490 67 426
491 79 423
492 84 433
493 96 435
494 104 427
495 114 432
496 125 435
497 135 422
498 142 431
499 150 430
500 166 430
501 178 437
502 181 439
503 191 436
504 204 438
505 211 425
506 227 439
507 1 451
508 16 459
509 27 449
510 33 451
511 43 445
512 57 443
513 67 458
514 77 441
515 84 454
516 92 440
517 102 460
518 116 451
519 126 444
520 134 449
521 147 447
522 154 446
523 167 444
524 177 449
525 189 451
526 198 446
527 203 455
528 213 449
529 221 450
530 7 475
531 19 480
532 23 477
533 33 480
534 43 474
535 54 474
536 68 472
537 74 464
538 85 466
539 94 475
540 108 470
541 113 461
542 129 470
543 136 473
544 143 461
545 153 478
546 160 470
547 172 479
548 181 469
549 198 460
550 206 464
551 217 478
552 228 473
553 9 498
554 16 494
555 24 496
556 33 490
557 46 481
558 51 499
559 69 491
560 71 484
561 85 485
562 93 481
563 106 485
564 117 482
565 121 482
566 136 497
567 143 489
568 156 480
569 165 492
570 176 488
571 183 499
572 192 493
573 201 494
574 212 491
575 226 482
NODE_SCORE_SECTION
1 1
2 1
3 1
4 1
5 1
6 1
7 1
8 1
9 1
10 1
11 1
12 1
13 1
14 1
15 1
16 1
17 1
18 1
19 1
20 1
21 1
22 1
23 1
24 1
25 1
26 1
27 1
28 1
29 1
30 1
31 1
32 1
33 1
34 1
35 1
36 1
37 1
38 1
39 1
40 1
41 1
42 1
43 1
44 1
45 1
46 1
47 1
48 1
49 1
50 1
51 1
52 1
53 1
54 1
55 1
56 1
57 1
58 1
59 1
60 1
61 1
62 1
63 1
64 1
65 1
66 1
67 1
68 1
69 1
70 1
71 1
72 1
73 1
74 1
75 1
76 1
77 1
78 1
79 1
80 1
81 1
82 1
83 1
84 1
85 1
86 1
87 1
88 1
89 1
90 1
91 1
92 1
93 1
94 1
95 1
96 1
97 1
98 1
99 1
100 1
101 1
102 1
103 1
104 1
105 1
106 1
107 1
108 1
109 1
110 1
111 1
112 1
113 1
114 1
115 1
116 1
117 1
118 1
119 1
120 1
121 1
122 1
123 1
124 1
125 1
126 1
127 1
128 1
129 1
130 1
131 1
132 1
133 1
134 1
135 1
136 1
137 1
138 1
139 1
140 1
141 1
142 1
143 1
144 1
145 1
146 1
147 1
148 1
149 1
150 1
151 1
152 1
153 1
154 1
155 1
156 1
157 1
158 1
159 1
160 1
161 1
162 1
163 1
164 1
165 1
166 1
167 1
168 1
169 1
170 1
171 1
172 1
173 1
174 1
175 1
176 1
177 1
178 1
179 1
180 1
181 1
182 1
183 1
184 1
185 1
186 1
187 1
188 1
189 1
190 1
191 1
192 1
193 1
194 1
195 1
196 1
197 1
198 1
199 1
200 1
201 1
202 1
203 1
204 1
205 1
206 1
207 1
208 1
209 1
210 1
211 1
212 1
213 1
214 1
215 1
216 1
217 1
218 1
219 1
220 1
221 1
222 1
223 1
224 1
225 1
226 1
227 1
228 1
229 1
230 1
231 1
232 1
233 1
234 1
235 1
236 1
237 1
238 1
239 1
240 1
241 1
242 1
243 1
244 1
245 1
246 1
247 1
248 1
249 1
250 1
251 1
252 1
253 1
254 1
255 1
256 1
257 1
258 1
259 1
260 1
261 1
262 1
263 1
264 1
265 1
266 1
267 1
268 1
269 1
270 1
271 1
272 1
273 1
274 1
275 1
276 1
277 1
278 1
279 1
280 1
281 1
282 1
283 1
284 1
285 1
286 1
287 1
288 1
289 1
290 1
291 1
292 1
293 1
294 1
295 1
296 1
297 1
298 1
299 1
300 1
301 1
302 1
303 1
304 1
305 1
306 1
307 1
308 1
309 1
310 1
311 1
312 1
313 1
314 1
315 1
316 1
317 1
318 1
319 1
320 1
321 1
322 1
323 1
324 1
325 1
326 1
327 1
328 1
329 1
330 1
331 1
332 1
333 1
334 1
335 1
336 1
337 1
338 1
339 1
340 1
341 1
342 1
343 1
344 1
345 1
346 1
347 1
348 1
349 1
350 1
351 1
352 1
353 1
354 1
355 1
356 1
357 1
358 1
359 1
360 1
361 1
362 1
363 1
364 1
365 1
366 1
367 1
368 1
369 1
370 1
371 1
372 1
373 1
374 1
375 1
376 1
377 1
378 1
379 1
380 1
381 1
382 1
383 1
384 1
385 1
386 1
387 1
388 1
389 1
390 1
391 1
392 1
393 1
394 1
395 1
396 1
397 1
398 1
399 1
400 1
401 1
402 1
403 1
404 1
405 1
406 1
407 1
408 1
409 1
410 1
411 1
412 1
413 1
414 1
415 1
416 1
417 1
418 1
419 1
420 1
421 1
422 1
423 1
424 1
425 1
426 1
427 1
428 1
429 1
430 1
431 1
432 1
433 1
434 1
435 1
436 1
437 1
438 1
439 1
440 1
441 1
442 1
443 1
444 1
445 1
446 1
447 1
448 1
449 1
450 1
451 1
452 1
453 1
454 1
455 1
456 1
457 1
458 1
459 1
460 1
461 1
462 1
463 1
464 1
465 1
466 1
467 1
468 1
469 1
470 1
471 1
472 1
473 1
474 1
475 1
476 1
477 1
478 1
479 1
480 1
481 1
482 1
483 1
484 1
485 1
486 1
487 1
488 1
489 1
490 1
491 1
492 1
493 1
494 1
495 1
496 1
497 1
498 1
499 1
500 1
501 1
502 1
503 1
504 1
505 1
506 1
507 1
508 1
509 1
510 1
511 1
512 1
513 1
514 1
515 1
516 1
517 1
518 1
519 1
520 1
521 1
522 1
523 1
524 1
525 1
526 1
527 1
528 1
529 1
530 1
531 1
532 1
533 1
534 1
535 1
536 1
537 1
538 1
539 1
540 1
541 1
542 1
543 1
544 1
545 1
546 1
547 1
548 1
549 1
550 1
551 1
552 1
553 1
554 1
555 1
556 1
557 1
558 1
559 1
560 1
561 1
562 1
563 1
564 1
565 1
566 1
567 1
568 1
569 1
570 1
571 1
572 1
573 1
574 1
575 1
DEPOT_SECTION
1
-1
EOF
