single_objective/SL-DABL/OP/problems/op/OPLib-master/solutions/ea4op/gen1/rat575-gen1-50.sol
NAME : rat575
TYPE : OP
DIMENSION : 575
COST_LIMIT : 3387
ROUTE_NODES : 309
ROUTE_SCORE : 309
ROUTE_COST : 3386
NODE_SEQUENCE_SECTION
1
24
48
49
72
73
51
74
75
98
97
120
119
118
141
140
162
163
164
165
166
167
145
168
169
170
171
194
195
217
216
215
214
236
213
212
189
188
187
186
209
210
233
234
235
258
259
260
261
262
286
263
264
240
241
218
219
220
243
244
245
267
266
290
289
288
311
312
335
334
357
356
333
332
331
308
330
307
305
328
327
326
350
349
348
371
372
395
373
374
375
376
377
400
399
398
397
396
419
441
442
465
464
463
462
461
485
487
488
489
512
511
510
509
508
532
531
554
555
556
533
534
557
535
536
560
561
562
539
538
515
516
493
494
495
496
519
518
541
540
564
565
542
543
545
568
547
570
571
572
573
574
551
550
549
527
526
504
505
482
459
458
481
480
503
502
501
523
522
521
498
497
474
475
476
477
454
453
452
451
450
449
427
428
429
406
407
408
431
432
434
433
409
387
410
388
411
412
389
413
390
367
368
366
365
364
363
386
385
361
362
338
339
316
315
314
291
292
268
269
246
247
248
249
227
226
225
224
200
199
198
221
197
196
174
175
176
177
201
202
203
179
180
157
156
155
133
132
131
108
107
129
128
151
150
149
148
125
126
103
102
104
81
79
80
56
57
58
36
59
60
61
62
63
64
65
87
88
89
90
68
67
44
45
21
20
43
19
42
41
40
16
15
14
12
13
35
34
11
33
32
31
53
52
29
28
27
26
25
-1
DEPOT_SECTION
1
-1
EOF
